\ENCODING=ISO-8859-1
\Problem name: IloCplex

Minimize
 obj1: 3 x_a_0 + 2 x_a_1 + 2 x_a_2 + 2 x_a_3 + 3 x_a_4 + x_a_5 + 2 x_a_6
       + x_a_7 + 3 x_a_8 + 2 x_a_9 + 2 x_a_10 + x_a_11 + x_a_12 + x_a_13
       + 3 x_a_14 + x_a_15 + 3 x_a_16 + x_a_17 + x_a_18 + 2 x_a_19 + 3 x_a_20
       + x_a_21 + 2 x_a_22 + 2 x_a_23 + x_a_24 + x_a_25 + 3 x_a_26 + 2 x_a_27
       + 2 x_a_28 + x_a_29 + 2 x_a_30 + 2 x_a_31 + 3 x_a_32 + 3 x_a_33 + x_a_34
       + x_a_35 + 2 x_a_36 + x_a_37 + x_a_38 + 2 x_a_39 + 3 x_a_40 + x_a_41
       + 3 x_a_42 + 3 x_a_43 + 2 x_a_44 + 3 x_a_45 + x_a_46 + 3 x_a_47
       + 2 x_a_48 + 2 x_a_49 + 2 x_a_50 + 2 x_a_51 + 3 x_a_52 + x_a_53 + x_a_54
       + 3 x_a_55 + 3 x_a_56 + x_a_57 + 2 x_a_58 + x_a_59 + 2 x_a_60 + 2 x_a_61
       + 2 x_a_62 + 2 x_a_63 + 3 x_a_64 + 2 x_a_65 + 3 x_a_66 + x_a_67
       + 2 x_a_68 + 2 x_a_69 + 2 x_a_70 + x_a_71 + 3 x_a_72 + 2 x_a_73
       + 3 x_a_74 + 2 x_a_75 + 2 x_a_76 + x_a_77 + 2 x_a_78 + x_a_79 + x_a_80
       + x_a_81 + 2 x_a_82 + x_a_83 + x_a_84 + 2 x_a_85 + 3 x_a_86 + 3 x_a_87
       + x_a_88 + 2 x_a_89 + 2 x_a_90 + 2 x_a_91 + 2 x_a_92 + x_a_93 + 2 x_a_94
       + 3 x_a_95 + 2 x_a_96 + x_a_97 + 3 x_a_98 + 2 x_a_99 + x_a_100
       + 2 x_a_101 + 3 x_a_102 + 2 x_a_103 + 3 x_a_104 + 3 x_a_105 + 2 x_a_106
       + 3 x_a_107 + x_a_108 + 3 x_a_109 + x_a_110 + 3 x_a_111 + 3 x_a_112
       + 3 x_a_113 + 2 x_a_114 + x_a_115 + 2 x_a_116 + x_a_117 + x_a_118
       + x_a_119 + x_a_120 + 2 x_a_121 + x_a_122 + 2 x_a_123 + x_a_124
       + 3 x_a_125 + x_a_126 + 2 x_a_127 + 3 x_a_128 + 3 x_a_129 + 3 x_a_130
       + 2 x_a_131 + x_a_132 + 2 x_a_133 + x_a_134 + x_a_135 + x_a_136
       + 2 x_a_137 + 2 x_a_138 + 3 x_a_139 + 3 x_a_140 + 3 x_a_141 + 3 x_a_142
       + 2 x_a_143 + 3 x_a_144 + 2 x_a_145 + x_a_146 + 3 x_a_147 + x_a_148
       + 3 x_a_149 + 3 x_a_150 + 2 x_a_151 + 2 x_a_152 + 2 x_a_153 + x_a_154
       + 3 x_a_155 + 2 x_a_156 + x_a_157 + 2 x_a_158 + 2 x_a_159 + 2 x_a_160
       + 2 x_a_161 + 2 x_a_162 + 3 x_a_163 + x_a_164 + 2 x_a_165 + 3 x_a_166
       + 3 x_a_167 + 3 x_a_168 + x_a_169 + 3 x_a_170 + 2 x_a_171 + x_a_172
       + 3 x_a_173 + 2 x_a_174 + x_a_175 + x_a_176 + x_a_177 + 3 x_a_178
       + 3 x_a_179 + 2 x_a_180 + 2 x_a_181 + 3 x_a_182 + x_a_183 + x_a_184
       + 3 x_a_185 + x_a_186 + x_a_187 + x_a_188 + 3 x_a_189 + 2 x_a_190
       + 3 x_a_191 + 3 x_a_192 + x_a_193 + x_a_194 + 3 x_a_195 + x_a_196
       + x_a_197 + x_a_198 + 2 x_a_199 + 2 x_a_200 + 3 x_a_201 + 3 x_a_202
       + 3 x_a_203 + 3 x_a_204 + 3 x_a_205 + 2 x_a_206 + 2 x_a_207 + 2 x_a_208
       + x_a_209 + x_a_210 + 3 x_a_211 + 2 x_a_212 + 3 x_a_213 + 3 x_a_214
       + 2 x_a_215 + x_a_216 + 3 x_a_217 + 3 x_a_218 + 2 x_a_219 + 3 x_a_220
       + x_a_221 + 3 x_a_222 + 2 x_a_223 + 2 x_a_224 + x_a_225 + x_a_226
       + 1000000000 x_a_227 + 1000000000 x_a_228 + 1000000000 x_a_229
       + 1000000000 x_a_230 + 1000000000 x_a_231 + 1000000000 x_a_232
       + 1000000000 x_a_233 + 1000000000 x_a_234 + 1000000000 x_a_235
       + 1000000000 x_a_236 + 1000000000 x_a_237 + 1000000000 x_a_238
       + 1000000000 x_a_239 + 1000000000 x_a_240 + 1000000000 x_a_241
       + 1000000000 x_a_242 + 10000 x_a_243
Subject To
 c1:   y_a_227 + y_a_228 + y_a_229 + y_a_230 + y_a_231 + y_a_232 + y_a_233
       + y_a_234 <= 643.5
 c2:   y_a_0 + y_a_1 + y_a_2 + y_a_3 + y_a_4 + y_a_5 + y_a_6 + y_a_7 + y_a_8
       + y_a_9 + y_a_10 + y_a_11 + y_a_12  = 0
 c3:   - y_a_0 + y_a_13 + y_a_14 + y_a_15 + y_a_16 + y_a_17 + y_a_18 + y_a_19
       + y_a_20 + y_a_21 + y_a_22 + y_a_23 + y_a_235  = 0
 c4:   - y_a_1 + y_a_24 + y_a_25 + y_a_26 + y_a_27 + y_a_28 + y_a_29 + y_a_30
       + y_a_31 + y_a_32 + y_a_33 + y_a_34  = 0
 c5:   - y_a_13 - y_a_24 + y_a_35 + y_a_36 + y_a_37 + y_a_38 + y_a_39 + y_a_40
       + y_a_41 + y_a_42 + y_a_43 + y_a_44 + y_a_45 + y_a_240  = 0
 c6:   - y_a_2 - y_a_14 - y_a_35 + y_a_46 + y_a_47 + y_a_48 + y_a_49 + y_a_50
       + y_a_51 + y_a_52  = 0
 c7:   - y_a_231 - y_a_3 - y_a_15 + y_a_53 + y_a_54 + y_a_55 + y_a_56 + y_a_57
       + y_a_58 + y_a_59 + y_a_60 + y_a_61 + y_a_62 + y_a_63 + y_a_64  = 0
 c8:   - y_a_234 - y_a_25 - y_a_46 - y_a_53 + y_a_65 + y_a_66 + y_a_67 + y_a_68
       + y_a_69 + y_a_70 + y_a_71 + y_a_72 + y_a_73  = 0
 c9:   - y_a_4 - y_a_16 - y_a_26 + y_a_74 + y_a_75 + y_a_76 + y_a_77 + y_a_78
       + y_a_79 + y_a_80 + y_a_81 + y_a_82 + y_a_83 + y_a_84  = 0
 c10:  - y_a_17 - y_a_27 - y_a_74 + y_a_85 + y_a_86 + y_a_87 + y_a_88 + y_a_89
       + y_a_90 + y_a_91 + y_a_92 + y_a_93  = 0
 c11:  - y_a_47 - y_a_75 + y_a_94 + y_a_95 + y_a_96 + y_a_97 + y_a_98 + y_a_99
       + y_a_100  = 0
 c12:  - y_a_36 - y_a_54 - y_a_94 + y_a_101 + y_a_102 + y_a_103 + y_a_104
       + y_a_105 + y_a_106 + y_a_107 + y_a_108 + y_a_109 + y_a_110  = 0
 c13:  - y_a_5 - y_a_37 - y_a_55 - y_a_76 - y_a_101 + y_a_111 + y_a_112
       + y_a_113 + y_a_114 + y_a_115  = 0
 c14:  - y_a_38 - y_a_65 - y_a_85 + y_a_116 + y_a_117 + y_a_118 + y_a_119
       + y_a_120 + y_a_121 + y_a_122 + y_a_123 + y_a_124 + y_a_125  = 0
 c15:  - y_a_48 - y_a_56 - y_a_111 + y_a_126 + y_a_127 + y_a_128 + y_a_129
       + y_a_130 + y_a_131 + y_a_132 + y_a_133  = 0
 c16:  - y_a_28 - y_a_39 - y_a_66 - y_a_77 - y_a_86 - y_a_95 - y_a_102
       - y_a_116 + y_a_134 + y_a_135 + y_a_136 + y_a_137 + y_a_138 + y_a_139
       + y_a_140 + y_a_141  = 0
 c17:  - y_a_78 - y_a_96 - y_a_103 - y_a_126 - y_a_134 + y_a_142 + y_a_143
       + y_a_144 + y_a_145 + y_a_146 + y_a_147 + y_a_148 + y_a_149  = 0
 c18:  - y_a_57 - y_a_104 - y_a_127 + y_a_150 + y_a_151 + y_a_152  = 0
 c19:  - y_a_229 - y_a_6 - y_a_58 - y_a_79 - y_a_117 + y_a_153 + y_a_154
       + y_a_155 + y_a_156 + y_a_157 + y_a_158 + y_a_159 + y_a_160  = 0
 c20:  - y_a_7 - y_a_118 - y_a_128 - y_a_142 - y_a_150 + y_a_161 + y_a_162
       + y_a_163 + y_a_164 + y_a_165 + y_a_166 + y_a_167 + y_a_239  = 0
 c21:  - y_a_233 - y_a_8 - y_a_18 - y_a_49 - y_a_97 - y_a_119 - y_a_143
       - y_a_153 - y_a_161 + y_a_168 + y_a_169 + y_a_170 + y_a_171 + y_a_172
       + y_a_173 + y_a_174  = 0
 c22:  - y_a_228 - y_a_40 - y_a_59 - y_a_80 - y_a_87 - y_a_144 - y_a_154
       + y_a_175 + y_a_176 + y_a_177 + y_a_178 + y_a_179 + y_a_180  = 0
 c23:  - y_a_60 - y_a_88 - y_a_105 - y_a_120 - y_a_135 - y_a_155 - y_a_162
       + y_a_181 + y_a_182 + y_a_183 + y_a_184 + y_a_185 + y_a_186 + y_a_236
        = 0
 c24:  - y_a_227 - y_a_19 - y_a_106 - y_a_156 - y_a_163 - y_a_181 + y_a_187
       + y_a_188 + y_a_189  = 0
 c25:  - y_a_9 - y_a_67 - y_a_107 - y_a_112 - y_a_129 - y_a_157 - y_a_168
       + y_a_190 + y_a_191 + y_a_192 + y_a_193 + y_a_194 + y_a_195 + y_a_196
        = 0
 c26:  - y_a_29 - y_a_50 - y_a_61 - y_a_81 - y_a_113 - y_a_121 - y_a_175
       - y_a_187 - y_a_190 + y_a_197 + y_a_198 + y_a_199 + y_a_200  = 0
 c27:  - y_a_20 - y_a_82 - y_a_130 - y_a_136 - y_a_158 - y_a_169 - y_a_176
       - y_a_182 + y_a_201 + y_a_202 + y_a_203  = 0
 c28:  - y_a_230 - y_a_10 - y_a_21 - y_a_89 - y_a_114 - y_a_145 - y_a_151
       - y_a_177 - y_a_197 + y_a_204 + y_a_205 + y_a_206 + y_a_207  = 0
 c29:  - y_a_22 - y_a_30 - y_a_90 - y_a_98 - y_a_108 - y_a_122 - y_a_137
       - y_a_146 - y_a_164 - y_a_170 - y_a_178 - y_a_198 + y_a_208 + y_a_209
       + y_a_210 + y_a_211 + y_a_237  = 0
 c30:  - y_a_11 - y_a_31 - y_a_51 - y_a_83 - y_a_91 - y_a_147 - y_a_171
       - y_a_191 - y_a_204 - y_a_208 + y_a_212 + y_a_213  = 0
 c31:  - y_a_68 - y_a_109 - y_a_123 - y_a_131 - y_a_138 - y_a_183 + y_a_214
        = 0
 c32:  - y_a_41 - y_a_69 - y_a_99 - y_a_110 - y_a_124 - y_a_132 - y_a_148
       - y_a_172 - y_a_184 - y_a_192 - y_a_209 + y_a_215 + y_a_216 + y_a_217
       + y_a_242  = 0
 c33:  - y_a_232 - y_a_32 - y_a_42 - y_a_62 - y_a_70 - y_a_92 - y_a_193
       - y_a_212 - y_a_215 + y_a_218 + y_a_219  = 0
 c34:  - y_a_33 - y_a_100 - y_a_165 - y_a_179 - y_a_188 - y_a_194 - y_a_205
       + y_a_220 + y_a_221 + y_a_222  = 0
 c35:  - y_a_43 - y_a_52 - y_a_63 - y_a_71 - y_a_139 - y_a_149 - y_a_173
       - y_a_195 - y_a_216 - y_a_220 + y_a_223  = 0
 c36:  - y_a_23 - y_a_72 - y_a_125 - y_a_133 - y_a_140 - y_a_152 - y_a_159
       - y_a_166 - y_a_174 - y_a_199 - y_a_201 - y_a_213 - y_a_221 + y_a_224
       + y_a_241  = 0
 c37:  - y_a_44 - y_a_141 - y_a_185 - y_a_202 - y_a_206 - y_a_210 - y_a_218
       + y_a_225  = 0
 c38:  - y_a_45 - y_a_73 - y_a_84 - y_a_93 - y_a_160 - y_a_180 - y_a_186
       - y_a_189 - y_a_200 - y_a_211 - y_a_219 - y_a_224 + y_a_226 + y_a_238
        = 0
 c39:  - y_a_12 - y_a_34 - y_a_64 - y_a_115 - y_a_167 - y_a_196 - y_a_203
       - y_a_207 - y_a_214 - y_a_217 - y_a_222 - y_a_223 - y_a_225 - y_a_226
        = 0
 c40:  y_a_227 + y_a_228 + y_a_229 + y_a_230 + y_a_231 + y_a_232 + y_a_233
       + y_a_234 - y_a_243  = 0
 c41:  - y_a_235 - y_a_240 - y_a_239 - y_a_236 - y_a_237 - y_a_242 - y_a_241
       - y_a_238 + y_a_243  = 0
 c42:  y_a_0 + 10 x_a_0 <= 10
 c43:  y_a_1 + 38 x_a_1 <= 38
 c44:  y_a_2 + 43 x_a_2 <= 43
 c45:  y_a_3 + 27 x_a_3 <= 27
 c46:  y_a_4 + 34 x_a_4 <= 34
 c47:  y_a_5 + 31 x_a_5 <= 31
 c48:  y_a_6 + 11 x_a_6 <= 11
 c49:  y_a_7 + 6 x_a_7 <= 6
 c50:  y_a_8 + 9 x_a_8 <= 9
 c51:  y_a_9 + 10 x_a_9 <= 10
 c52:  y_a_10 + 13 x_a_10 <= 13
 c53:  y_a_11 + 25 x_a_11 <= 25
 c54:  y_a_12 + 9 x_a_12 <= 9
 c55:  y_a_13 + 2 x_a_13 <= 2
 c56:  y_a_14 + 44 x_a_14 <= 44
 c57:  y_a_15 + 22 x_a_15 <= 22
 c58:  y_a_16 + 32 x_a_16 <= 32
 c59:  y_a_17 + 33 x_a_17 <= 33
 c60:  y_a_18 + 11 x_a_18 <= 11
 c61:  y_a_19 + 5 x_a_19 <= 5
 c62:  y_a_20 + 13 x_a_20 <= 13
 c63:  y_a_21 + 17 x_a_21 <= 17
 c64:  y_a_22 + 15 x_a_22 <= 15
 c65:  y_a_23 + 43 x_a_23 <= 43
 c66:  y_a_24 + 47 x_a_24 <= 47
 c67:  y_a_25 + 25 x_a_25 <= 25
 c68:  y_a_26 + 49 x_a_26 <= 49
 c69:  y_a_27 + 45 x_a_27 <= 45
 c70:  y_a_28 + 32 x_a_28 <= 32
 c71:  y_a_29 + 30 x_a_29 <= 30
 c72:  y_a_30 + 26 x_a_30 <= 26
 c73:  y_a_31 + 3 x_a_31 <= 3
 c74:  y_a_32 + 17 x_a_32 <= 17
 c75:  y_a_33 + 42 x_a_33 <= 42
 c76:  y_a_34 + 11 x_a_34 <= 11
 c77:  y_a_35 + 16 x_a_35 <= 16
 c78:  y_a_36 + 32 x_a_36 <= 32
 c79:  y_a_37 + 44 x_a_37 <= 44
 c80:  y_a_38 + 45 x_a_38 <= 45
 c81:  y_a_39 + 34 x_a_39 <= 34
 c82:  y_a_40 + 25 x_a_40 <= 25
 c83:  y_a_41 + 8 x_a_41 <= 8
 c84:  y_a_42 + 27 x_a_42 <= 27
 c85:  y_a_43 + 28 x_a_43 <= 28
 c86:  y_a_44 + 31 x_a_44 <= 31
 c87:  y_a_45 + 36 x_a_45 <= 36
 c88:  y_a_46 + 27 x_a_46 <= 27
 c89:  y_a_47 + 17 x_a_47 <= 17
 c90:  y_a_48 + 17 x_a_48 <= 17
 c91:  y_a_49 + 29 x_a_49 <= 29
 c92:  y_a_50 + 42 x_a_50 <= 42
 c93:  y_a_51 + 7 x_a_51 <= 7
 c94:  y_a_52 + 33 x_a_52 <= 33
 c95:  y_a_53 + 9 x_a_53 <= 9
 c96:  y_a_54 + 31 x_a_54 <= 31
 c97:  y_a_55 + 15 x_a_55 <= 15
 c98:  y_a_56 + 9 x_a_56 <= 9
 c99:  y_a_57 + 43 x_a_57 <= 43
 c100: y_a_58 + 14 x_a_58 <= 14
 c101: y_a_59 + 34 x_a_59 <= 34
 c102: y_a_60 + 46 x_a_60 <= 46
 c103: y_a_61 + 2 x_a_61 <= 2
 c104: y_a_62 + 39 x_a_62 <= 39
 c105: y_a_63 + 49 x_a_63 <= 49
 c106: y_a_64 + 46 x_a_64 <= 46
 c107: y_a_65 + 38 x_a_65 <= 38
 c108: y_a_66 + 28 x_a_66 <= 28
 c109: y_a_67 + 35 x_a_67 <= 35
 c110: y_a_68 + 8 x_a_68 <= 8
 c111: y_a_69 + 48 x_a_69 <= 48
 c112: y_a_70 + 40 x_a_70 <= 40
 c113: y_a_71 + 27 x_a_71 <= 27
 c114: y_a_72 + 47 x_a_72 <= 47
 c115: y_a_73 + 17 x_a_73 <= 17
 c116: y_a_74 + 6 x_a_74 <= 6
 c117: y_a_75 + 14 x_a_75 <= 14
 c118: y_a_76 + 28 x_a_76 <= 28
 c119: y_a_77 + 11 x_a_77 <= 11
 c120: y_a_78 + 23 x_a_78 <= 23
 c121: y_a_79 + 11 x_a_79 <= 11
 c122: y_a_80 + 44 x_a_80 <= 44
 c123: y_a_81 + 34 x_a_81 <= 34
 c124: y_a_82 + 29 x_a_82 <= 29
 c125: y_a_83 + 38 x_a_83 <= 38
 c126: y_a_84 + 10 x_a_84 <= 10
 c127: y_a_85 + 10 x_a_85 <= 10
 c128: y_a_86 + 36 x_a_86 <= 36
 c129: y_a_87 + 42 x_a_87 <= 42
 c130: y_a_88 + 2 x_a_88 <= 2
 c131: y_a_89 + 41 x_a_89 <= 41
 c132: y_a_90 + 44 x_a_90 <= 44
 c133: y_a_91 + 14 x_a_91 <= 14
 c134: y_a_92 + 2 x_a_92 <= 2
 c135: y_a_93 + 22 x_a_93 <= 22
 c136: y_a_94 + 12 x_a_94 <= 12
 c137: y_a_95 + 16 x_a_95 <= 16
 c138: y_a_96 + 47 x_a_96 <= 47
 c139: y_a_97 + 3 x_a_97 <= 3
 c140: y_a_98 + 46 x_a_98 <= 46
 c141: y_a_99 + 47 x_a_99 <= 47
 c142: y_a_100 + 38 x_a_100 <= 38
 c143: y_a_101 + 43 x_a_101 <= 43
 c144: y_a_102 + 27 x_a_102 <= 27
 c145: y_a_103 + 43 x_a_103 <= 43
 c146: y_a_104 + 11 x_a_104 <= 11
 c147: y_a_105 + 19 x_a_105 <= 19
 c148: y_a_106 + 33 x_a_106 <= 33
 c149: y_a_107 + 49 x_a_107 <= 49
 c150: y_a_108 + 47 x_a_108 <= 47
 c151: y_a_109 + 13 x_a_109 <= 13
 c152: y_a_110 + 42 x_a_110 <= 42
 c153: y_a_111 + 16 x_a_111 <= 16
 c154: y_a_112 + 38 x_a_112 <= 38
 c155: y_a_113 + 20 x_a_113 <= 20
 c156: y_a_114 + 18 x_a_114 <= 18
 c157: y_a_115 + 41 x_a_115 <= 41
 c158: y_a_116 + 28 x_a_116 <= 28
 c159: y_a_117 + 28 x_a_117 <= 28
 c160: y_a_118 + x_a_118 <= 1
 c161: y_a_119 + 5 x_a_119 <= 5
 c162: y_a_120 + 16 x_a_120 <= 16
 c163: y_a_121 + 3 x_a_121 <= 3
 c164: y_a_122 + 23 x_a_122 <= 23
 c165: y_a_123 + 2 x_a_123 <= 2
 c166: y_a_124 + 23 x_a_124 <= 23
 c167: y_a_125 + 2 x_a_125 <= 2
 c168: y_a_126 + 48 x_a_126 <= 48
 c169: y_a_127 + 12 x_a_127 <= 12
 c170: y_a_128 + 35 x_a_128 <= 35
 c171: y_a_129 + 17 x_a_129 <= 17
 c172: y_a_130 + 8 x_a_130 <= 8
 c173: y_a_131 + 14 x_a_131 <= 14
 c174: y_a_132 + 44 x_a_132 <= 44
 c175: y_a_133 + 6 x_a_133 <= 6
 c176: y_a_134 + 36 x_a_134 <= 36
 c177: y_a_135 + 32 x_a_135 <= 32
 c178: y_a_136 + 48 x_a_136 <= 48
 c179: y_a_137 + 21 x_a_137 <= 21
 c180: y_a_138 + 32 x_a_138 <= 32
 c181: y_a_139 + 41 x_a_139 <= 41
 c182: y_a_140 + 14 x_a_140 <= 14
 c183: y_a_141 + 48 x_a_141 <= 48
 c184: y_a_142 + 42 x_a_142 <= 42
 c185: y_a_143 + 31 x_a_143 <= 31
 c186: y_a_144 + 32 x_a_144 <= 32
 c187: y_a_145 + 28 x_a_145 <= 28
 c188: y_a_146 + 21 x_a_146 <= 21
 c189: y_a_147 + 22 x_a_147 <= 22
 c190: y_a_148 + 27 x_a_148 <= 27
 c191: y_a_149 + 42 x_a_149 <= 42
 c192: y_a_150 + 7 x_a_150 <= 7
 c193: y_a_151 + 43 x_a_151 <= 43
 c194: y_a_152 + 20 x_a_152 <= 20
 c195: y_a_153 + 49 x_a_153 <= 49
 c196: y_a_154 + 19 x_a_154 <= 19
 c197: y_a_155 + 7 x_a_155 <= 7
 c198: y_a_156 + 9 x_a_156 <= 9
 c199: y_a_157 + 27 x_a_157 <= 27
 c200: y_a_158 + 16 x_a_158 <= 16
 c201: y_a_159 + 36 x_a_159 <= 36
 c202: y_a_160 + 32 x_a_160 <= 32
 c203: y_a_161 + 35 x_a_161 <= 35
 c204: y_a_162 + 18 x_a_162 <= 18
 c205: y_a_163 + 37 x_a_163 <= 37
 c206: y_a_164 + 44 x_a_164 <= 44
 c207: y_a_165 + 29 x_a_165 <= 29
 c208: y_a_166 + 41 x_a_166 <= 41
 c209: y_a_167 + 31 x_a_167 <= 31
 c210: y_a_168 + 15 x_a_168 <= 15
 c211: y_a_169 + 9 x_a_169 <= 9
 c212: y_a_170 + 24 x_a_170 <= 24
 c213: y_a_171 + 34 x_a_171 <= 34
 c214: y_a_172 + 20 x_a_172 <= 20
 c215: y_a_173 + 14 x_a_173 <= 14
 c216: y_a_174 + 45 x_a_174 <= 45
 c217: y_a_175 + 43 x_a_175 <= 43
 c218: y_a_176 + 38 x_a_176 <= 38
 c219: y_a_177 + 43 x_a_177 <= 43
 c220: y_a_178 + 30 x_a_178 <= 30
 c221: y_a_179 + 26 x_a_179 <= 26
 c222: y_a_180 + 13 x_a_180 <= 13
 c223: y_a_181 + 7 x_a_181 <= 7
 c224: y_a_182 + 30 x_a_182 <= 30
 c225: y_a_183 + 13 x_a_183 <= 13
 c226: y_a_184 + 40 x_a_184 <= 40
 c227: y_a_185 + 30 x_a_185 <= 30
 c228: y_a_186 + 22 x_a_186 <= 22
 c229: y_a_187 + 49 x_a_187 <= 49
 c230: y_a_188 + 6 x_a_188 <= 6
 c231: y_a_189 + 27 x_a_189 <= 27
 c232: y_a_190 + 19 x_a_190 <= 19
 c233: y_a_191 + 27 x_a_191 <= 27
 c234: y_a_192 + 18 x_a_192 <= 18
 c235: y_a_193 + 45 x_a_193 <= 45
 c236: y_a_194 + 35 x_a_194 <= 35
 c237: y_a_195 + 41 x_a_195 <= 41
 c238: y_a_196 + 13 x_a_196 <= 13
 c239: y_a_197 + 25 x_a_197 <= 25
 c240: y_a_198 + 3 x_a_198 <= 3
 c241: y_a_199 + 39 x_a_199 <= 39
 c242: y_a_200 + x_a_200 <= 1
 c243: y_a_201 + 11 x_a_201 <= 11
 c244: y_a_202 + 46 x_a_202 <= 46
 c245: y_a_203 + 46 x_a_203 <= 46
 c246: y_a_204 + 3 x_a_204 <= 3
 c247: y_a_205 + 18 x_a_205 <= 18
 c248: y_a_206 + 5 x_a_206 <= 5
 c249: y_a_207 + 9 x_a_207 <= 9
 c250: y_a_208 + 23 x_a_208 <= 23
 c251: y_a_209 + 16 x_a_209 <= 16
 c252: y_a_210 + 25 x_a_210 <= 25
 c253: y_a_211 + 48 x_a_211 <= 48
 c254: y_a_212 + 19 x_a_212 <= 19
 c255: y_a_213 + 30 x_a_213 <= 30
 c256: y_a_214 + 40 x_a_214 <= 40
 c257: y_a_215 + 31 x_a_215 <= 31
 c258: y_a_216 + 42 x_a_216 <= 42
 c259: y_a_217 + 5 x_a_217 <= 5
 c260: y_a_218 + 15 x_a_218 <= 15
 c261: y_a_219 + 32 x_a_219 <= 32
 c262: y_a_220 + 19 x_a_220 <= 19
 c263: y_a_221 + 41 x_a_221 <= 41
 c264: y_a_222 + 14 x_a_222 <= 14
 c265: y_a_223 + 29 x_a_223 <= 29
 c266: y_a_224 + 21 x_a_224 <= 21
 c267: y_a_225 + 20 x_a_225 <= 20
 c268: y_a_226 + 4 x_a_226 <= 4
 c269: y_a_227 + 50000000 x_a_227 <= 50000000
 c270: y_a_228 + 50000000 x_a_228 <= 50000000
 c271: y_a_229 + 50000000 x_a_229 <= 50000000
 c272: y_a_230 + 50000000 x_a_230 <= 50000000
 c273: y_a_231 + 50000000 x_a_231 <= 50000000
 c274: y_a_232 + 50000000 x_a_232 <= 50000000
 c275: y_a_233 + 50000000 x_a_233 <= 50000000
 c276: y_a_234 + 50000000 x_a_234 <= 50000000
 c277: y_a_235 + 50000000 x_a_235 <= 50000000
 c278: y_a_236 + 50000000 x_a_236 <= 50000000
 c279: y_a_237 + 50000000 x_a_237 <= 50000000
 c280: y_a_238 + 50000000 x_a_238 <= 50000000
 c281: y_a_239 + 50000000 x_a_239 <= 50000000
 c282: y_a_240 + 50000000 x_a_240 <= 50000000
 c283: y_a_241 + 50000000 x_a_241 <= 50000000
 c284: y_a_242 + 50000000 x_a_242 <= 50000000
 c285: y_a_243 + 10000 x_a_243 <= 10000
Bounds
 0 <= y_a_227 <= 50000000
 0 <= y_a_228 <= 50000000
 0 <= y_a_229 <= 50000000
 0 <= y_a_230 <= 50000000
 0 <= y_a_231 <= 50000000
 0 <= y_a_232 <= 50000000
 0 <= y_a_233 <= 50000000
 0 <= y_a_234 <= 50000000
 0 <= y_a_0 <= 10
 0 <= y_a_1 <= 38
 0 <= y_a_2 <= 43
 0 <= y_a_3 <= 27
 0 <= y_a_4 <= 34
 0 <= y_a_5 <= 31
 0 <= y_a_6 <= 11
 0 <= y_a_7 <= 6
 0 <= y_a_8 <= 9
 0 <= y_a_9 <= 10
 0 <= y_a_10 <= 13
 0 <= y_a_11 <= 25
 0 <= y_a_12 <= 9
 0 <= y_a_13 <= 2
 0 <= y_a_14 <= 44
 0 <= y_a_15 <= 22
 0 <= y_a_16 <= 32
 0 <= y_a_17 <= 33
 0 <= y_a_18 <= 11
 0 <= y_a_19 <= 5
 0 <= y_a_20 <= 13
 0 <= y_a_21 <= 17
 0 <= y_a_22 <= 15
 0 <= y_a_23 <= 43
 0 <= y_a_235 <= 50000000
 0 <= y_a_24 <= 47
 0 <= y_a_25 <= 25
 0 <= y_a_26 <= 49
 0 <= y_a_27 <= 45
 0 <= y_a_28 <= 32
 0 <= y_a_29 <= 30
 0 <= y_a_30 <= 26
 0 <= y_a_31 <= 3
 0 <= y_a_32 <= 17
 0 <= y_a_33 <= 42
 0 <= y_a_34 <= 11
 0 <= y_a_35 <= 16
 0 <= y_a_36 <= 32
 0 <= y_a_37 <= 44
 0 <= y_a_38 <= 45
 0 <= y_a_39 <= 34
 0 <= y_a_40 <= 25
 0 <= y_a_41 <= 8
 0 <= y_a_42 <= 27
 0 <= y_a_43 <= 28
 0 <= y_a_44 <= 31
 0 <= y_a_45 <= 36
 0 <= y_a_240 <= 50000000
 0 <= y_a_46 <= 27
 0 <= y_a_47 <= 17
 0 <= y_a_48 <= 17
 0 <= y_a_49 <= 29
 0 <= y_a_50 <= 42
 0 <= y_a_51 <= 7
 0 <= y_a_52 <= 33
 0 <= y_a_53 <= 9
 0 <= y_a_54 <= 31
 0 <= y_a_55 <= 15
 0 <= y_a_56 <= 9
 0 <= y_a_57 <= 43
 0 <= y_a_58 <= 14
 0 <= y_a_59 <= 34
 0 <= y_a_60 <= 46
 0 <= y_a_61 <= 2
 0 <= y_a_62 <= 39
 0 <= y_a_63 <= 49
 0 <= y_a_64 <= 46
 0 <= y_a_65 <= 38
 0 <= y_a_66 <= 28
 0 <= y_a_67 <= 35
 0 <= y_a_68 <= 8
 0 <= y_a_69 <= 48
 0 <= y_a_70 <= 40
 0 <= y_a_71 <= 27
 0 <= y_a_72 <= 47
 0 <= y_a_73 <= 17
 0 <= y_a_74 <= 6
 0 <= y_a_75 <= 14
 0 <= y_a_76 <= 28
 0 <= y_a_77 <= 11
 0 <= y_a_78 <= 23
 0 <= y_a_79 <= 11
 0 <= y_a_80 <= 44
 0 <= y_a_81 <= 34
 0 <= y_a_82 <= 29
 0 <= y_a_83 <= 38
 0 <= y_a_84 <= 10
 0 <= y_a_85 <= 10
 0 <= y_a_86 <= 36
 0 <= y_a_87 <= 42
 0 <= y_a_88 <= 2
 0 <= y_a_89 <= 41
 0 <= y_a_90 <= 44
 0 <= y_a_91 <= 14
 0 <= y_a_92 <= 2
 0 <= y_a_93 <= 22
 0 <= y_a_94 <= 12
 0 <= y_a_95 <= 16
 0 <= y_a_96 <= 47
 0 <= y_a_97 <= 3
 0 <= y_a_98 <= 46
 0 <= y_a_99 <= 47
 0 <= y_a_100 <= 38
 0 <= y_a_101 <= 43
 0 <= y_a_102 <= 27
 0 <= y_a_103 <= 43
 0 <= y_a_104 <= 11
 0 <= y_a_105 <= 19
 0 <= y_a_106 <= 33
 0 <= y_a_107 <= 49
 0 <= y_a_108 <= 47
 0 <= y_a_109 <= 13
 0 <= y_a_110 <= 42
 0 <= y_a_111 <= 16
 0 <= y_a_112 <= 38
 0 <= y_a_113 <= 20
 0 <= y_a_114 <= 18
 0 <= y_a_115 <= 41
 0 <= y_a_116 <= 28
 0 <= y_a_117 <= 28
 0 <= y_a_118 <= 1
 0 <= y_a_119 <= 5
 0 <= y_a_120 <= 16
 0 <= y_a_121 <= 3
 0 <= y_a_122 <= 23
 0 <= y_a_123 <= 2
 0 <= y_a_124 <= 23
 0 <= y_a_125 <= 2
 0 <= y_a_126 <= 48
 0 <= y_a_127 <= 12
 0 <= y_a_128 <= 35
 0 <= y_a_129 <= 17
 0 <= y_a_130 <= 8
 0 <= y_a_131 <= 14
 0 <= y_a_132 <= 44
 0 <= y_a_133 <= 6
 0 <= y_a_134 <= 36
 0 <= y_a_135 <= 32
 0 <= y_a_136 <= 48
 0 <= y_a_137 <= 21
 0 <= y_a_138 <= 32
 0 <= y_a_139 <= 41
 0 <= y_a_140 <= 14
 0 <= y_a_141 <= 48
 0 <= y_a_142 <= 42
 0 <= y_a_143 <= 31
 0 <= y_a_144 <= 32
 0 <= y_a_145 <= 28
 0 <= y_a_146 <= 21
 0 <= y_a_147 <= 22
 0 <= y_a_148 <= 27
 0 <= y_a_149 <= 42
 0 <= y_a_150 <= 7
 0 <= y_a_151 <= 43
 0 <= y_a_152 <= 20
 0 <= y_a_153 <= 49
 0 <= y_a_154 <= 19
 0 <= y_a_155 <= 7
 0 <= y_a_156 <= 9
 0 <= y_a_157 <= 27
 0 <= y_a_158 <= 16
 0 <= y_a_159 <= 36
 0 <= y_a_160 <= 32
 0 <= y_a_161 <= 35
 0 <= y_a_162 <= 18
 0 <= y_a_163 <= 37
 0 <= y_a_164 <= 44
 0 <= y_a_165 <= 29
 0 <= y_a_166 <= 41
 0 <= y_a_167 <= 31
 0 <= y_a_239 <= 50000000
 0 <= y_a_168 <= 15
 0 <= y_a_169 <= 9
 0 <= y_a_170 <= 24
 0 <= y_a_171 <= 34
 0 <= y_a_172 <= 20
 0 <= y_a_173 <= 14
 0 <= y_a_174 <= 45
 0 <= y_a_175 <= 43
 0 <= y_a_176 <= 38
 0 <= y_a_177 <= 43
 0 <= y_a_178 <= 30
 0 <= y_a_179 <= 26
 0 <= y_a_180 <= 13
 0 <= y_a_181 <= 7
 0 <= y_a_182 <= 30
 0 <= y_a_183 <= 13
 0 <= y_a_184 <= 40
 0 <= y_a_185 <= 30
 0 <= y_a_186 <= 22
 0 <= y_a_236 <= 50000000
 0 <= y_a_187 <= 49
 0 <= y_a_188 <= 6
 0 <= y_a_189 <= 27
 0 <= y_a_190 <= 19
 0 <= y_a_191 <= 27
 0 <= y_a_192 <= 18
 0 <= y_a_193 <= 45
 0 <= y_a_194 <= 35
 0 <= y_a_195 <= 41
 0 <= y_a_196 <= 13
 0 <= y_a_197 <= 25
 0 <= y_a_198 <= 3
 0 <= y_a_199 <= 39
 0 <= y_a_200 <= 1
 0 <= y_a_201 <= 11
 0 <= y_a_202 <= 46
 0 <= y_a_203 <= 46
 0 <= y_a_204 <= 3
 0 <= y_a_205 <= 18
 0 <= y_a_206 <= 5
 0 <= y_a_207 <= 9
 0 <= y_a_208 <= 23
 0 <= y_a_209 <= 16
 0 <= y_a_210 <= 25
 0 <= y_a_211 <= 48
 0 <= y_a_237 <= 50000000
 0 <= y_a_212 <= 19
 0 <= y_a_213 <= 30
 0 <= y_a_214 <= 40
 0 <= y_a_215 <= 31
 0 <= y_a_216 <= 42
 0 <= y_a_217 <= 5
 0 <= y_a_242 <= 50000000
 0 <= y_a_218 <= 15
 0 <= y_a_219 <= 32
 0 <= y_a_220 <= 19
 0 <= y_a_221 <= 41
 0 <= y_a_222 <= 14
 0 <= y_a_223 <= 29
 0 <= y_a_224 <= 21
 0 <= y_a_241 <= 50000000
 0 <= y_a_225 <= 20
 0 <= y_a_226 <= 4
 0 <= y_a_238 <= 50000000
 0 <= y_a_243 <= 10000
 0 <= x_a_0 <= 1
 0 <= x_a_1 <= 1
 0 <= x_a_2 <= 1
 0 <= x_a_3 <= 1
 0 <= x_a_4 <= 1
 0 <= x_a_5 <= 1
 0 <= x_a_6 <= 1
 0 <= x_a_7 <= 1
 0 <= x_a_8 <= 1
 0 <= x_a_9 <= 1
 0 <= x_a_10 <= 1
 0 <= x_a_11 <= 1
 0 <= x_a_12 <= 1
 0 <= x_a_13 <= 1
 0 <= x_a_14 <= 1
 0 <= x_a_15 <= 1
 0 <= x_a_16 <= 1
 0 <= x_a_17 <= 1
 0 <= x_a_18 <= 1
 0 <= x_a_19 <= 1
 0 <= x_a_20 <= 1
 0 <= x_a_21 <= 1
 0 <= x_a_22 <= 1
 0 <= x_a_23 <= 1
 0 <= x_a_24 <= 1
 0 <= x_a_25 <= 1
 0 <= x_a_26 <= 1
 0 <= x_a_27 <= 1
 0 <= x_a_28 <= 1
 0 <= x_a_29 <= 1
 0 <= x_a_30 <= 1
 0 <= x_a_31 <= 1
 0 <= x_a_32 <= 1
 0 <= x_a_33 <= 1
 0 <= x_a_34 <= 1
 0 <= x_a_35 <= 1
 0 <= x_a_36 <= 1
 0 <= x_a_37 <= 1
 0 <= x_a_38 <= 1
 0 <= x_a_39 <= 1
 0 <= x_a_40 <= 1
 0 <= x_a_41 <= 1
 0 <= x_a_42 <= 1
 0 <= x_a_43 <= 1
 0 <= x_a_44 <= 1
 0 <= x_a_45 <= 1
 0 <= x_a_46 <= 1
 0 <= x_a_47 <= 1
 0 <= x_a_48 <= 1
 0 <= x_a_49 <= 1
 0 <= x_a_50 <= 1
 0 <= x_a_51 <= 1
 0 <= x_a_52 <= 1
 0 <= x_a_53 <= 1
 0 <= x_a_54 <= 1
 0 <= x_a_55 <= 1
 0 <= x_a_56 <= 1
 0 <= x_a_57 <= 1
 0 <= x_a_58 <= 1
 0 <= x_a_59 <= 1
 0 <= x_a_60 <= 1
 0 <= x_a_61 <= 1
 0 <= x_a_62 <= 1
 0 <= x_a_63 <= 1
 0 <= x_a_64 <= 1
 0 <= x_a_65 <= 1
 0 <= x_a_66 <= 1
 0 <= x_a_67 <= 1
 0 <= x_a_68 <= 1
 0 <= x_a_69 <= 1
 0 <= x_a_70 <= 1
 0 <= x_a_71 <= 1
 0 <= x_a_72 <= 1
 0 <= x_a_73 <= 1
 0 <= x_a_74 <= 1
 0 <= x_a_75 <= 1
 0 <= x_a_76 <= 1
 0 <= x_a_77 <= 1
 0 <= x_a_78 <= 1
 0 <= x_a_79 <= 1
 0 <= x_a_80 <= 1
 0 <= x_a_81 <= 1
 0 <= x_a_82 <= 1
 0 <= x_a_83 <= 1
 0 <= x_a_84 <= 1
 0 <= x_a_85 <= 1
 0 <= x_a_86 <= 1
 0 <= x_a_87 <= 1
 0 <= x_a_88 <= 1
 0 <= x_a_89 <= 1
 0 <= x_a_90 <= 1
 0 <= x_a_91 <= 1
 0 <= x_a_92 <= 1
 0 <= x_a_93 <= 1
 0 <= x_a_94 <= 1
 0 <= x_a_95 <= 1
 0 <= x_a_96 <= 1
 0 <= x_a_97 <= 1
 0 <= x_a_98 <= 1
 0 <= x_a_99 <= 1
 0 <= x_a_100 <= 1
 0 <= x_a_101 <= 1
 0 <= x_a_102 <= 1
 0 <= x_a_103 <= 1
 0 <= x_a_104 <= 1
 0 <= x_a_105 <= 1
 0 <= x_a_106 <= 1
 0 <= x_a_107 <= 1
 0 <= x_a_108 <= 1
 0 <= x_a_109 <= 1
 0 <= x_a_110 <= 1
 0 <= x_a_111 <= 1
 0 <= x_a_112 <= 1
 0 <= x_a_113 <= 1
 0 <= x_a_114 <= 1
 0 <= x_a_115 <= 1
 0 <= x_a_116 <= 1
 0 <= x_a_117 <= 1
 0 <= x_a_118 <= 1
 0 <= x_a_119 <= 1
 0 <= x_a_120 <= 1
 0 <= x_a_121 <= 1
 0 <= x_a_122 <= 1
 0 <= x_a_123 <= 1
 0 <= x_a_124 <= 1
 0 <= x_a_125 <= 1
 0 <= x_a_126 <= 1
 0 <= x_a_127 <= 1
 0 <= x_a_128 <= 1
 0 <= x_a_129 <= 1
 0 <= x_a_130 <= 1
 0 <= x_a_131 <= 1
 0 <= x_a_132 <= 1
 0 <= x_a_133 <= 1
 0 <= x_a_134 <= 1
 0 <= x_a_135 <= 1
 0 <= x_a_136 <= 1
 0 <= x_a_137 <= 1
 0 <= x_a_138 <= 1
 0 <= x_a_139 <= 1
 0 <= x_a_140 <= 1
 0 <= x_a_141 <= 1
 0 <= x_a_142 <= 1
 0 <= x_a_143 <= 1
 0 <= x_a_144 <= 1
 0 <= x_a_145 <= 1
 0 <= x_a_146 <= 1
 0 <= x_a_147 <= 1
 0 <= x_a_148 <= 1
 0 <= x_a_149 <= 1
 0 <= x_a_150 <= 1
 0 <= x_a_151 <= 1
 0 <= x_a_152 <= 1
 0 <= x_a_153 <= 1
 0 <= x_a_154 <= 1
 0 <= x_a_155 <= 1
 0 <= x_a_156 <= 1
 0 <= x_a_157 <= 1
 0 <= x_a_158 <= 1
 0 <= x_a_159 <= 1
 0 <= x_a_160 <= 1
 0 <= x_a_161 <= 1
 0 <= x_a_162 <= 1
 0 <= x_a_163 <= 1
 0 <= x_a_164 <= 1
 0 <= x_a_165 <= 1
 0 <= x_a_166 <= 1
 0 <= x_a_167 <= 1
 0 <= x_a_168 <= 1
 0 <= x_a_169 <= 1
 0 <= x_a_170 <= 1
 0 <= x_a_171 <= 1
 0 <= x_a_172 <= 1
 0 <= x_a_173 <= 1
 0 <= x_a_174 <= 1
 0 <= x_a_175 <= 1
 0 <= x_a_176 <= 1
 0 <= x_a_177 <= 1
 0 <= x_a_178 <= 1
 0 <= x_a_179 <= 1
 0 <= x_a_180 <= 1
 0 <= x_a_181 <= 1
 0 <= x_a_182 <= 1
 0 <= x_a_183 <= 1
 0 <= x_a_184 <= 1
 0 <= x_a_185 <= 1
 0 <= x_a_186 <= 1
 0 <= x_a_187 <= 1
 0 <= x_a_188 <= 1
 0 <= x_a_189 <= 1
 0 <= x_a_190 <= 1
 0 <= x_a_191 <= 1
 0 <= x_a_192 <= 1
 0 <= x_a_193 <= 1
 0 <= x_a_194 <= 1
 0 <= x_a_195 <= 1
 0 <= x_a_196 <= 1
 0 <= x_a_197 <= 1
 0 <= x_a_198 <= 1
 0 <= x_a_199 <= 1
 0 <= x_a_200 <= 1
 0 <= x_a_201 <= 1
 0 <= x_a_202 <= 1
 0 <= x_a_203 <= 1
 0 <= x_a_204 <= 1
 0 <= x_a_205 <= 1
 0 <= x_a_206 <= 1
 0 <= x_a_207 <= 1
 0 <= x_a_208 <= 1
 0 <= x_a_209 <= 1
 0 <= x_a_210 <= 1
 0 <= x_a_211 <= 1
 0 <= x_a_212 <= 1
 0 <= x_a_213 <= 1
 0 <= x_a_214 <= 1
 0 <= x_a_215 <= 1
 0 <= x_a_216 <= 1
 0 <= x_a_217 <= 1
 0 <= x_a_218 <= 1
 0 <= x_a_219 <= 1
 0 <= x_a_220 <= 1
 0 <= x_a_221 <= 1
 0 <= x_a_222 <= 1
 0 <= x_a_223 <= 1
 0 <= x_a_224 <= 1
 0 <= x_a_225 <= 1
 0 <= x_a_226 <= 1
 0 <= x_a_227 <= 1
 0 <= x_a_228 <= 1
 0 <= x_a_229 <= 1
 0 <= x_a_230 <= 1
 0 <= x_a_231 <= 1
 0 <= x_a_232 <= 1
 0 <= x_a_233 <= 1
 0 <= x_a_234 <= 1
 0 <= x_a_235 <= 1
 0 <= x_a_236 <= 1
 0 <= x_a_237 <= 1
 0 <= x_a_238 <= 1
 0 <= x_a_239 <= 1
 0 <= x_a_240 <= 1
 0 <= x_a_241 <= 1
 0 <= x_a_242 <= 1
 0 <= x_a_243 <= 1
Binaries
 y_a_118  y_a_200  x_a_0  x_a_1  x_a_2  x_a_3  x_a_4  x_a_5  x_a_6  x_a_7 
 x_a_8  x_a_9  x_a_10  x_a_11  x_a_12  x_a_13  x_a_14  x_a_15  x_a_16  x_a_17 
 x_a_18  x_a_19  x_a_20  x_a_21  x_a_22  x_a_23  x_a_24  x_a_25  x_a_26 
 x_a_27  x_a_28  x_a_29  x_a_30  x_a_31  x_a_32  x_a_33  x_a_34  x_a_35 
 x_a_36  x_a_37  x_a_38  x_a_39  x_a_40  x_a_41  x_a_42  x_a_43  x_a_44 
 x_a_45  x_a_46  x_a_47  x_a_48  x_a_49  x_a_50  x_a_51  x_a_52  x_a_53 
 x_a_54  x_a_55  x_a_56  x_a_57  x_a_58  x_a_59  x_a_60  x_a_61  x_a_62 
 x_a_63  x_a_64  x_a_65  x_a_66  x_a_67  x_a_68  x_a_69  x_a_70  x_a_71 
 x_a_72  x_a_73  x_a_74  x_a_75  x_a_76  x_a_77  x_a_78  x_a_79  x_a_80 
 x_a_81  x_a_82  x_a_83  x_a_84  x_a_85  x_a_86  x_a_87  x_a_88  x_a_89 
 x_a_90  x_a_91  x_a_92  x_a_93  x_a_94  x_a_95  x_a_96  x_a_97  x_a_98 
 x_a_99  x_a_100  x_a_101  x_a_102  x_a_103  x_a_104  x_a_105  x_a_106 
 x_a_107  x_a_108  x_a_109  x_a_110  x_a_111  x_a_112  x_a_113  x_a_114 
 x_a_115  x_a_116  x_a_117  x_a_118  x_a_119  x_a_120  x_a_121  x_a_122 
 x_a_123  x_a_124  x_a_125  x_a_126  x_a_127  x_a_128  x_a_129  x_a_130 
 x_a_131  x_a_132  x_a_133  x_a_134  x_a_135  x_a_136  x_a_137  x_a_138 
 x_a_139  x_a_140  x_a_141  x_a_142  x_a_143  x_a_144  x_a_145  x_a_146 
 x_a_147  x_a_148  x_a_149  x_a_150  x_a_151  x_a_152  x_a_153  x_a_154 
 x_a_155  x_a_156  x_a_157  x_a_158  x_a_159  x_a_160  x_a_161  x_a_162 
 x_a_163  x_a_164  x_a_165  x_a_166  x_a_167  x_a_168  x_a_169  x_a_170 
 x_a_171  x_a_172  x_a_173  x_a_174  x_a_175  x_a_176  x_a_177  x_a_178 
 x_a_179  x_a_180  x_a_181  x_a_182  x_a_183  x_a_184  x_a_185  x_a_186 
 x_a_187  x_a_188  x_a_189  x_a_190  x_a_191  x_a_192  x_a_193  x_a_194 
 x_a_195  x_a_196  x_a_197  x_a_198  x_a_199  x_a_200  x_a_201  x_a_202 
 x_a_203  x_a_204  x_a_205  x_a_206  x_a_207  x_a_208  x_a_209  x_a_210 
 x_a_211  x_a_212  x_a_213  x_a_214  x_a_215  x_a_216  x_a_217  x_a_218 
 x_a_219  x_a_220  x_a_221  x_a_222  x_a_223  x_a_224  x_a_225  x_a_226 
 x_a_227  x_a_228  x_a_229  x_a_230  x_a_231  x_a_232  x_a_233  x_a_234 
 x_a_235  x_a_236  x_a_237  x_a_238  x_a_239  x_a_240  x_a_241  x_a_242 
 x_a_243 
Generals
 y_a_227  y_a_228  y_a_229  y_a_230  y_a_231  y_a_232  y_a_233  y_a_234  y_a_0 
 y_a_1  y_a_2  y_a_3  y_a_4  y_a_5  y_a_6  y_a_7  y_a_8  y_a_9  y_a_10  y_a_11 
 y_a_12  y_a_13  y_a_14  y_a_15  y_a_16  y_a_17  y_a_18  y_a_19  y_a_20 
 y_a_21  y_a_22  y_a_23  y_a_235  y_a_24  y_a_25  y_a_26  y_a_27  y_a_28 
 y_a_29  y_a_30  y_a_31  y_a_32  y_a_33  y_a_34  y_a_35  y_a_36  y_a_37 
 y_a_38  y_a_39  y_a_40  y_a_41  y_a_42  y_a_43  y_a_44  y_a_45  y_a_240 
 y_a_46  y_a_47  y_a_48  y_a_49  y_a_50  y_a_51  y_a_52  y_a_53  y_a_54 
 y_a_55  y_a_56  y_a_57  y_a_58  y_a_59  y_a_60  y_a_61  y_a_62  y_a_63 
 y_a_64  y_a_65  y_a_66  y_a_67  y_a_68  y_a_69  y_a_70  y_a_71  y_a_72 
 y_a_73  y_a_74  y_a_75  y_a_76  y_a_77  y_a_78  y_a_79  y_a_80  y_a_81 
 y_a_82  y_a_83  y_a_84  y_a_85  y_a_86  y_a_87  y_a_88  y_a_89  y_a_90 
 y_a_91  y_a_92  y_a_93  y_a_94  y_a_95  y_a_96  y_a_97  y_a_98  y_a_99 
 y_a_100  y_a_101  y_a_102  y_a_103  y_a_104  y_a_105  y_a_106  y_a_107 
 y_a_108  y_a_109  y_a_110  y_a_111  y_a_112  y_a_113  y_a_114  y_a_115 
 y_a_116  y_a_117  y_a_119  y_a_120  y_a_121  y_a_122  y_a_123  y_a_124 
 y_a_125  y_a_126  y_a_127  y_a_128  y_a_129  y_a_130  y_a_131  y_a_132 
 y_a_133  y_a_134  y_a_135  y_a_136  y_a_137  y_a_138  y_a_139  y_a_140 
 y_a_141  y_a_142  y_a_143  y_a_144  y_a_145  y_a_146  y_a_147  y_a_148 
 y_a_149  y_a_150  y_a_151  y_a_152  y_a_153  y_a_154  y_a_155  y_a_156 
 y_a_157  y_a_158  y_a_159  y_a_160  y_a_161  y_a_162  y_a_163  y_a_164 
 y_a_165  y_a_166  y_a_167  y_a_239  y_a_168  y_a_169  y_a_170  y_a_171 
 y_a_172  y_a_173  y_a_174  y_a_175  y_a_176  y_a_177  y_a_178  y_a_179 
 y_a_180  y_a_181  y_a_182  y_a_183  y_a_184  y_a_185  y_a_186  y_a_236 
 y_a_187  y_a_188  y_a_189  y_a_190  y_a_191  y_a_192  y_a_193  y_a_194 
 y_a_195  y_a_196  y_a_197  y_a_198  y_a_199  y_a_201  y_a_202  y_a_203 
 y_a_204  y_a_205  y_a_206  y_a_207  y_a_208  y_a_209  y_a_210  y_a_211 
 y_a_237  y_a_212  y_a_213  y_a_214  y_a_215  y_a_216  y_a_217  y_a_242 
 y_a_218  y_a_219  y_a_220  y_a_221  y_a_222  y_a_223  y_a_224  y_a_241 
 y_a_225  y_a_226  y_a_238  y_a_243 
End
